(set-info :origin "NTS benchmark converted to SMT-LIB2 using Eldarica (http://lara.epfl.ch/w/eldarica)")
(set-logic HORN)
(declare-fun p (Int Int Int Int Int Int Int Int Int Int Int Int Int) Bool)
(assert(forall((A Int)(B Int)(C Int)(D Int)(E Int)(F Int)(G Int)(H Int)(I Int)(J Int)(K Int)(L Int)(M Int)(N Int)(O Int)(P Int)(Q Int)(R Int)(S Int)(T Int)(U Int)(V Int)(W Int)(X Int)(Y Int))(=>(and (and (= A 8) (and (and (and (and (and (and (and (and (and (and (and (= N B) (= O C)) (= P D)) (= Q E)) (= R F)) (= S G)) (= T H)) (= U I)) (= V J)) (= W K)) (= X L)) (= Y M))) (and (and (and (and (and (not (not (= R X))) (not (not (= Q W)))) (not (not (= P V)))) (not (not (= O U)))) (not (not (= N T)))) (not (not (= S Y))))) (p A B C D E F G H I J K L M))))
(assert(forall((A Int)(B Int)(C Int)(D Int)(E Int)(F Int)(G Int)(H Int)(I Int)(J Int)(K Int)(L Int)(M Int)(N Int)(O Int)(P Int)(Q Int)(R Int)(S Int)(T Int)(U Int)(V Int)(W Int)(X Int)(Y Int)(Z Int)(A1 Int)(B1 Int)(C1 Int)(D1 Int)(E1 Int)(F1 Int)(G1 Int)(H1 Int)(I1 Int)(J1 Int)(K1 Int)(L1 Int)(M1 Int)(N1 Int)(O1 Int)(P1 Int)(Q1 Int)(R1 Int))(=>(and (or (or (or (or (or (or (or (or (or (or (or (and (and (and (and (= A 0) (= N 1)) (and (and (and (and (and (and (and (and (and (and (and (= O B) (= P C)) (= Q D)) (= R E)) (= S F)) (= T G)) (= U H)) (= V I)) (= W J)) (= X K)) (= Y L)) (= Z M))) (and (and (and (and (and (and (and (and (and (and (and (= O A1) (= P B1)) (= Q C1)) (= R D1)) (= S E1)) (= T F1)) (= G1 H1)) (= I1 J1)) (= K1 L1)) (= M1 N1)) (= O1 P1)) (= Q1 R1))) (and (and (and (and (and (not (not (= Q1 Z))) (not (not (= O1 Y)))) (not (not (= K1 W)))) (not (not (= I1 V)))) (not (not (= G1 U)))) (not (not (= X (+ M1 1)))))) (and (and (and (and (= A 0) (= N 2)) (and (and (and (and (and (and (and (and (and (and (and (= O B) (= P C)) (= Q D)) (= R E)) (= S F)) (= T G)) (= U H)) (= V I)) (= W J)) (= X K)) (= Y L)) (= Z M))) (and (and (and (and (and (and (and (and (and (and (and (= O A1) (= P B1)) (= Q C1)) (= R D1)) (= S E1)) (= T F1)) (= G1 H1)) (= I1 J1)) (= K1 L1)) (= O1 N1)) (= M1 P1)) (= Q1 R1))) (and (and (and (and (and (not (not (= Q1 Z))) (not (not (= O1 X)))) (not (not (= K1 W)))) (not (not (= I1 V)))) (not (not (= G1 U)))) (not (not (= Y (+ M1 1))))))) (and (and (and (and (= A 2) (= N 3)) (and (and (and (and (and (and (and (and (and (and (and (= O B) (= P C)) (= Q D)) (= R E)) (= S F)) (= T G)) (= U H)) (= V I)) (= W J)) (= X K)) (= Y L)) (= Z M))) (and (and (and (and (and (and (and (and (and (and (and (= O A1) (= P B1)) (= Q C1)) (= R D1)) (= S E1)) (= T F1)) (= K1 H1)) (= G1 J1)) (= I1 L1)) (= M1 N1)) (= O1 P1)) (= Q1 R1))) (and (and (and (and (and (and (not (not (= Q1 Z))) (not (not (= O1 Y)))) (not (not (= M1 X)))) (not (not (= I1 W)))) (not (not (= G1 V)))) (not (not (= K1 U)))) (not (not (>= (- M1 G1) (+ I1 1))))))) (and (and (and (and (= A 2) (= N 3)) (and (and (and (and (and (and (and (and (and (and (and (= O B) (= P C)) (= Q D)) (= R E)) (= S F)) (= T G)) (= U H)) (= V I)) (= W J)) (= X K)) (= Y L)) (= Z M))) (and (and (and (and (and (and (and (and (and (and (and (= O A1) (= P B1)) (= Q C1)) (= R D1)) (= S E1)) (= T F1)) (= G1 H1)) (= I1 J1)) (= K1 L1)) (= M1 N1)) (= O1 P1)) (= Q1 R1))) (and (and (and (and (and (and (not (not (= Q1 Z))) (not (not (= O1 Y)))) (not (not (= M1 X)))) (not (not (= K1 W)))) (not (not (= I1 V)))) (not (not (= G1 U)))) (not (not (>= M1 G1)))))) (and (and (and (and (= A 2) (= N 3)) (and (and (and (and (and (and (and (and (and (and (and (= O B) (= P C)) (= Q D)) (= R E)) (= S F)) (= T G)) (= U H)) (= V I)) (= W J)) (= X K)) (= Y L)) (= Z M))) (and (and (and (and (and (and (and (and (and (and (and (= O A1) (= P B1)) (= Q C1)) (= R D1)) (= S E1)) (= T F1)) (= M1 H1)) (= K1 J1)) (= I1 L1)) (= G1 N1)) (= Q1 P1)) (= O1 R1))) (and (and (and (and (and (and (and (not (not (= Q1 Y))) (not (not (= I1 W)))) (not (not (= K1 V)))) (not (not (= M1 U)))) (not (not (= X (+ G1 1))))) (not (not (= Z (+ O1 1))))) (not (not (>= I1 (- G1 K1))))) (not (not (>= M1 (+ G1 1))))))) (and (and (and (and (= A 3) (= N 4)) (and (and (and (and (and (and (and (and (and (and (and (= O B) (= P C)) (= Q D)) (= R E)) (= S F)) (= T G)) (= U H)) (= V I)) (= W J)) (= X K)) (= Y L)) (= Z M))) (and (and (and (and (and (and (and (and (and (and (and (= O A1) (= P B1)) (= Q C1)) (= R D1)) (= S E1)) (= T F1)) (= M1 H1)) (= G1 J1)) (= I1 L1)) (= K1 N1)) (= O1 P1)) (= Q1 R1))) (and (and (and (and (and (and (not (not (= Q1 Z))) (not (not (= O1 Y)))) (not (not (= K1 X)))) (not (not (= I1 W)))) (not (not (= G1 V)))) (not (not (= M1 U)))) (not (not (>= M1 (+ G1 1))))))) (and (and (and (and (= A 0) (= N 4)) (and (and (and (and (and (and (and (and (and (and (and (= O B) (= P C)) (= Q D)) (= R E)) (= S F)) (= T G)) (= U H)) (= V I)) (= W J)) (= X K)) (= Y L)) (= Z M))) (and (and (and (and (and (and (and (and (and (and (and (= O A1) (= P B1)) (= Q C1)) (= R D1)) (= S E1)) (= T F1)) (= G1 H1)) (= M1 J1)) (= I1 L1)) (= K1 N1)) (= O1 P1)) (= Q1 R1))) (and (and (and (and (and (and (not (not (= Q1 Z))) (not (not (= O1 Y)))) (not (not (= K1 X)))) (not (not (= I1 W)))) (not (not (= M1 V)))) (not (not (= G1 U)))) (not (not (>= M1 G1)))))) (and (and (and (and (= A 4) (= N 5)) (and (and (and (and (and (and (and (and (and (and (and (= O B) (= P C)) (= Q D)) (= R E)) (= S F)) (= T G)) (= U H)) (= V I)) (= W J)) (= X K)) (= Y L)) (= Z M))) (and (and (and (and (and (and (and (and (and (and (and (= O A1) (= P B1)) (= Q C1)) (= R D1)) (= S E1)) (= T F1)) (= I1 H1)) (= G1 J1)) (= K1 L1)) (= M1 N1)) (= O1 P1)) (= Q1 R1))) (and (and (and (and (and (and (not (not (= Q1 Z))) (not (not (= O1 Y)))) (not (not (= M1 X)))) (not (not (= K1 W)))) (not (not (= G1 V)))) (not (not (= I1 U)))) (not (not (>= M1 G1)))))) (and (and (and (and (= A 1) (= N 0)) (and (and (and (and (and (and (and (and (and (and (and (= O B) (= P C)) (= Q D)) (= R E)) (= S F)) (= T G)) (= U H)) (= V I)) (= W J)) (= X K)) (= Y L)) (= Z M))) (and (and (and (and (and (and (and (and (and (and (and (= O A1) (= P B1)) (= Q C1)) (= R D1)) (= S E1)) (= T F1)) (= G1 H1)) (= I1 J1)) (= K1 L1)) (= O1 N1)) (= Q1 P1)) (= M1 R1))) (and (and (and (and (and (and (not (not (= Q1 Y))) (not (not (= O1 X)))) (not (not (= K1 W)))) (not (not (= I1 V)))) (not (not (= G1 U)))) (not (not (= Z (+ M1 (- 1)))))) (not (not (>= (+ M1 (- 1)) 0)))))) (and (and (and (and (= A 5) (= N 0)) (and (and (and (and (and (and (and (and (and (and (and (= O B) (= P C)) (= Q D)) (= R E)) (= S F)) (= T G)) (= U H)) (= V I)) (= W J)) (= X K)) (= Y L)) (= Z M))) (and (and (and (and (and (and (and (and (and (and (and (= O A1) (= P B1)) (= Q C1)) (= R D1)) (= S E1)) (= T F1)) (= G1 H1)) (= I1 J1)) (= K1 L1)) (= O1 N1)) (= M1 P1)) (= Q1 R1))) (and (and (and (and (and (and (not (not (= Q1 Z))) (not (not (= O1 X)))) (not (not (= K1 W)))) (not (not (= I1 V)))) (not (not (= G1 U)))) (not (not (= Y (+ M1 (- 1)))))) (not (not (>= (+ M1 (- 1)) 0)))))) (and (and (and (and (= A 0) (= N 7)) (and (and (and (and (and (and (and (and (and (and (and (= O B) (= P C)) (= Q D)) (= R E)) (= S F)) (= T G)) (= U H)) (= V I)) (= W J)) (= X K)) (= Y L)) (= Z M))) (and (and (and (and (and (and (and (and (and (and (and (= O A1) (= P B1)) (= Q C1)) (= R D1)) (= S E1)) (= T F1)) (= G1 H1)) (= I1 J1)) (= K1 L1)) (= O1 N1)) (= M1 P1)) (= Q1 R1))) (and (and (and (and (and (not (not (= Q1 Z))) (not (not (= O1 X)))) (not (not (= K1 W)))) (not (not (= I1 V)))) (not (not (= G1 U)))) (not (not (= Y (+ M1 1))))))) (and (and (and (and (= A 7) (= N 8)) (and (and (and (and (and (and (and (and (and (and (and (= O B) (= P C)) (= Q D)) (= R E)) (= S F)) (= T G)) (= U H)) (= V I)) (= W J)) (= X K)) (= Y L)) (= Z M))) (and (and (and (and (and (and (and (and (and (and (and (= O A1) (= P B1)) (= Q C1)) (= R D1)) (= S E1)) (= T F1)) (= M1 H1)) (= G1 J1)) (= I1 L1)) (= K1 N1)) (= O1 P1)) (= Q1 R1))) (and (and (and (and (and (and (not (not (= (+ Z 0) 0))) (not (not (= (+ Y 0) 0)))) (not (not (= (+ V 0) 0)))) (not (not (= (+ X 0) 0)))) (not (not (>= (+ W (- 1)) 0)))) (not (not (>= U W)))) (not (not (>= (+ U (- 1)) 0)))))) (p N A1 B1 C1 D1 E1 F1 H1 J1 L1 N1 P1 R1)) (p A B C D E F G H I J K L M))))
(assert(not (exists((A Int)(B Int)(C Int)(D Int)(E Int)(F Int)(G Int)(H Int)(I Int)(J Int)(K Int)(L Int)(M Int)(N Int)(O Int)(P Int)(Q Int)(R Int)(S Int)(T Int)(U Int)(V Int)(W Int)(X Int)(Y Int)(Z Int)(A1 Int)(B1 Int)(C1 Int)(D1 Int)(E1 Int))(and (and (and (= A 5) (and (and (and (and (and (and (and (and (and (and (and (= B C) (= D E)) (= F G)) (= H I)) (= J K)) (= L M)) (= N O)) (= P Q)) (= R S)) (= T U)) (= V W)) (= X Y))) (and (and (and (and (and (and (not (not (= X Z))) (not (not (= V A1)))) (not (not (= T B1)))) (not (not (= R C1)))) (not (not (= P D1)))) (not (not (= N E1)))) (not (not (>= P (+ T 1)))))) (p A C E G I K M O Q S U W Y)))))
(check-sat)
